study/exp-portion-fine-grain-4v100/run-logs-backup-12-06/unsupervised_samgraph_cache_graphsage_kKHop2_papers100M_coll_cache_asymm_link_2_cache_rate_005_batch_size_2000_concurrent_impl_MPS.log
config:eval_tsp="2022-12-05 06:59:01"
config:arch=arch5
config:num_train_worker=3
config:num_sample_worker=1
config:sample_type=khop2
config:root_path=/nvme/graph-learning-copy/samgraph/
config:dataset=papers100M
config:pipeline=False
config:cache_policy=coll_cache_asymm_link
config:cache_percentage=0.05
config:num_epoch=4
config:batch_size=2000
config:num_hidden=256
config:max_sampling_jobs=1
config:max_copying_jobs=1
config:barriered_epoch=1
config:presample_epoch=2
config:omp_thread_num=13
config:unsupervised=True
config:amp=True
config:rolling=0
config:fanout=[25, 10]
config:lr=0.003
config:dropout=0.5
config:single_gpu=False
config:max_num_step=1000
config:validate_configs=False
config:report_acc=0
config:dataset_path=/nvme/graph-learning-copy/samgraph/papers100M
config:torch_thread_num=13
config:train_workers=['cuda:0', 'cuda:1', 'cuda:2']
config:sample_workers=['cuda:3']
config:num_fanout=2
config:num_layer=2
config:_run_mode=RunMode.FGNN
config:_log_level=warn
config:_profile_level=3
config:_empty_feat=0
config:_arch=5
config:_sample_type=5
config:_cache_policy=13
test_result:init:input_scale_factor=1.12034
0 :  {link #0 : 1}, {link #1 : 2},
1 :  {link #0 : 2}, {link #1 : 0},
2 :  {link #0 : 0}, {link #1 : 1},
0 :  {link #0 : 1}, {link #1 : 2},
1 :  {link #0 : 2}, {link #1 : 0},
2 :  {link #0 : 0}, {link #1 : 1},
0 :  {link #0 : 1}, {link #1 : 2},
1 :  {link #0 : 2}, {link #1 : 0},
2 :  {link #0 : 0}, {link #1 : 1},
Set parameter WLSAccessID
Set parameter WLSSecret
Set parameter LicenseID
Set parameter TimeLimit to value 200
Set parameter MIPGap to value 0.05
Set parameter GomoryPasses to value 0
Set parameter Aggregate to value 0
Set parameter LogFile to value "cppsolver.log"
Set parameter Threads to value 26
Academic license - for non-commercial use only - registered to xiaoniu.sxn@sjtu.edu.cn
Gurobi Optimizer version 9.5.1 build v9.5.1rc2 (linux64)
Thread count: 40 physical cores, 80 logical processors, using up to 26 threads
Academic license - for non-commercial use only - registered to xiaoniu.sxn@sjtu.edu.cn
Optimize a model with 21435 rows, 10204 columns and 64275 nonzeros
Model fingerprint: 0x804da246
Variable types: 4 continuous, 10200 integer (10200 binary)
Coefficient statistics:
  Matrix range     [5e-04, 4e+02]
  Objective range  [1e+00, 1e+00]
  Bounds range     [1e+00, 1e+00]
  RHS range        [1e+00, 5e+02]
Found heuristic solution: objective 2.000000e+09
Presolve removed 12242 rows and 0 columns
Presolve time: 0.09s
Presolved: 9193 rows, 10204 columns, 37753 nonzeros
Found heuristic solution: objective 21753.944908
Variable types: 4 continuous, 10200 integer (10200 binary)

Root relaxation: objective 7.021983e+03, 8475 iterations, 0.18 seconds (0.15 work units)

    Nodes    |    Current Node    |     Objective Bounds      |     Work
 Expl Unexpl |  Obj  Depth IntInf | Incumbent    BestBd   Gap | It/Node Time

     0     0 7021.98296    0   16 21753.9449 7021.98296  67.7%     -    0s
H    0     0                    7044.1989337 7021.98296  0.32%     -    0s

Explored 1 nodes (10664 simplex iterations) in 0.40 seconds (0.32 work units)
Thread count was 26 (of 80 available processors)

Solution count 3: 7044.2 21753.9 2e+09 

Optimal solution found (tolerance 5.00e-02)
Best objective 7.044198933741e+03, best bound 7.021982964796e+03, gap 0.3154%
coll_cache:optimal_local_rate=0.264169,0.246602,0.225344,
coll_cache:optimal_remote_rate=0.468562,0.486129,0.507387,
coll_cache:optimal_cpu_rate=0.267269,0.267269,0.267269,
z=7044.2
test_result:init:feat_nbytes=56862697472
test_result:init:cache_nbytes=2845716480
test_result:init:feat_nbytes=56862697472
test_result:init:cache_nbytes=2844342784
test_result:init:feat_nbytes=56862697472
test_result:init:cache_nbytes=2846808576
[Train  Worker 1/3] Started with PID 85953(Tesla V100-SXM2-16GB)
[Train  Worker 1] run train for 4 epochs with 1002 steps
[Train  Worker 2/3] Started with PID 85955(Tesla V100-SXM2-16GB)
[Train  Worker 2] run train for 4 epochs with 1002 steps
[CUDA] cuda0: usage: 7.88 GB
[SAM] cuda0 data alloc        : 0.00 Bytes
[SAM] cuda0 workspace         : 535.25 MB
[SAM] cuda0 workspace reserve : 263.93 MB
[SAM] cuda0 total             : 535.25 MB
[Train  Worker 0/3] Started with PID 85951(Tesla V100-SXM2-16GB)
[Train  Worker 0] run train for 4 epochs with 1002 steps
Epoch 00000 | Epoch Time 6.2507 | Total Train Time(Profiler) 3.9389 | Copy Time 2.2833
[CUDA] cuda0: usage: 7.88 GB
[SAM] cuda0 data alloc        : 0.00 Bytes
[SAM] cuda0 workspace         : 535.25 MB
[SAM] cuda0 workspace reserve : 264.41 MB
[SAM] cuda0 total             : 535.25 MB
Epoch 00001 | Epoch Time 4.8625 | Total Train Time(Profiler) 2.5648 | Copy Time 2.2698
[CUDA] cuda0: usage: 7.88 GB
[SAM] cuda0 data alloc        : 0.00 Bytes
[SAM] cuda0 workspace         : 535.25 MB
[SAM] cuda0 workspace reserve : 264.30 MB
[SAM] cuda0 total             : 535.25 MB
Epoch 00002 | Epoch Time 4.8526 | Total Train Time(Profiler) 2.5526 | Copy Time 2.2672
[CUDA] cuda0: usage: 7.88 GB
[SAM] cuda0 data alloc        : 0.00 Bytes
[SAM] cuda0 workspace         : 535.25 MB
[SAM] cuda0 workspace reserve : 263.93 MB
[SAM] cuda0 total             : 535.25 MB
Epoch 00003 | Epoch Time 4.7619 | Total Train Time(Profiler) 2.4604 | Copy Time 2.2734
[Train  Worker 1] Avg Epoch Time 4.8259 | Train Total Time(Profiler) 2.5055 | Copy Time 2.2912
[Train  Worker 2] Avg Epoch Time 4.8257 | Train Total Time(Profiler) 2.5116 | Copy Time 2.2862
[Train  Worker 0] Avg Epoch Time 4.8256 | Train Total Time(Profiler) 2.5260 | Copy Time 2.2701
    [Step(average) Profiler Level 1 E3 S1001]
        L1  sample           0.001999 | send           0.000480
        L1  recv             0.000000 | copy           0.000000 | convert time 0.000000 | train  0.000000
        L1  feature nbytes 0.00 Bytes | label nbytes 0.00 Bytes
        L1  id nbytes      0.00 Bytes | graph nbytes 0.00 Bytes
        L1  miss nbytes    0.00 Bytes | remote nbytes 0.00 Bytes
        L1  num nodes          453647 | num samples      513941
    [Step(average) Profiler Level 2 E3 S1001]
        L2  shuffle     0.000078 | core sample  0.000568 | id remap        0.001163
        L2  graph copy  0.000000 | id copy      0.000000 | cache feat copy 0.000000
        L2  last layer sample time 0.000274 | size 44717.098470
    [Step(average) Profiler Level 3 E3 S1001]
        L3  khop sample coo  0.000321 | khop sort coo      0.000000 | khop count edge     0.000035 | khop compact edge 0.000161
        L3  walk sample coo  0.000000 | walk topk total    0.000000 | walk topk step1     0.000000 | walk topk step2   0.000000
        L3  walk topk step3  0.000000 | walk topk step4    0.000000 | walk topk step5     0.000000
        L3  walk topk step6  0.000000 | walk topk step7    0.000000
        L3  remap unique     0.000179 | remap populate     0.000998 | remap mapnode       0.000000 | remap mapedge     0.000177
        L3  cache get_index  0.000000 | cache copy_index   0.000000 | cache extract_miss  0.000000
        L3  cache copy_miss  0.000000 | cache combine_miss 0.000000 | cache combine cache 0.000000 | cache combine remote 0.000000
        L3  label extract  0.000000
    [Init Profiler Level 1]
        L1  init     3.0702 | sampler init    50.0422 | trainer init 0.0000
    [Init Profiler Level 2]
        L2  load ds         4.5792 | init queue          36.5920
        L2  presample      10.1734 | build interal ds     1.7655
        L2  build cache     0.0000
    [Init Profiler Level 3]
        L3  load dataset: mmap     3.0674 | copy         1.5118
        L3  dist queue: alloc      0.0007 | pin         36.5913 | push     0.0000
        L3  presample: init        0.5879
        L3  presample: sample      4.0377 | copy         0.3013
        L3  presample: count       4.2757 | sort         0.4384
        L3  presample: reset       0.0019 | get rank     0.0388
        L3  internal: cuda ctx     1.4725 | cuda stream     0.2833
[Sample Worker 0/1] Started with PID 85949(Tesla V100-SXM2-16GB)
[Sample Worker 0] run sample for 4 epochs with 1002 steps
[Sample Worker 0] Avg Sample Total Time 2.4936 | Sampler Total Time(Profiler) 2.4837
test_result:sample_time=2.0028
test_result:get_cache_miss_index_time=0.0000
test_result:enqueue_samples_time=0.4809
test_result:epoch_time:sample_total=2.4936
[CUDA] cuda0: usage: 7.88 GB
[SAM] cuda0 data alloc        : 0.00 Bytes
[SAM] cuda0 workspace         : 535.25 MB
[SAM] cuda0 workspace reserve : 263.93 MB
[SAM] cuda0 total             : 535.25 MB
    [Step(average) Profiler Level 1 E3 S1001]
        L1  sample           0.000000 | send           0.000000
        L1  recv             0.000576 | copy           0.006834 | convert time 0.000451 | train  0.007077
        L1  feature nbytes  221.51 MB | label nbytes   15.62 KB
        L1  id nbytes      0.00 Bytes | graph nbytes 0.00 Bytes
        L1  miss nbytes      62.21 MB | remote nbytes  105.95 MB
        L1  num nodes               0 | num samples           0
    [Step(average) Profiler Level 2 E3 S1001]
        L2  shuffle     0.000000 | core sample  0.000000 | id remap        0.000000
        L2  graph copy  0.000003 | id copy      0.000000 | cache feat copy 0.006255
        L2  last layer sample time 0.000000 | size 0.000000
    [Step(average) Profiler Level 3 E3 S1001]
        L3  khop sample coo  0.000000 | khop sort coo      0.000000 | khop count edge     0.000000 | khop compact edge 0.000000
        L3  walk sample coo  0.000000 | walk topk total    0.000000 | walk topk step1     0.000000 | walk topk step2   0.000000
        L3  walk topk step3  0.000000 | walk topk step4    0.000000 | walk topk step5     0.000000
        L3  walk topk step6  0.000000 | walk topk step7    0.000000
        L3  remap unique     0.000000 | remap populate     0.000000 | remap mapnode       0.000000 | remap mapedge     0.000000
        L3  cache get_index  0.000346 | cache copy_index   0.000000 | cache extract_miss  0.000000
        L3  cache copy_miss  0.000000 | cache combine_miss 0.005883 | cache combine cache 0.000202 | cache combine remote 0.001420
        L3  label extract  0.000014
    [Step(max) Profiler Level 1 E3 S1001]
        L1  sample           0.000000 | send           0.000000
        L1  recv             0.000000 | copy           0.000000 | convert time 0.000000 | train  0.000000
        L1  feature nbytes 0.00 Bytes | label nbytes 0.00 Bytes
        L1  id nbytes      0.00 Bytes | graph nbytes    4.08 MB
        L1  miss nbytes    0.00 Bytes | remote nbytes 0.00 Bytes
        L1  num nodes               0 | num samples           0
    [Step(max) Profiler Level 2 E3 S1001]
        L2  shuffle     0.000000 | core sample  0.000000 | id remap        0.000000
        L2  graph copy  0.000000 | id copy      0.000000 | cache feat copy 0.000000
        L2  last layer sample time 0.000000 | size 0.000000
    [Step(max) Profiler Level 3 E3 S1001]
        L3  khop sample coo  0.000000 | khop sort coo      0.000000 | khop count edge     0.000000 | khop compact edge 0.000000
        L3  walk sample coo  0.000000 | walk topk total    0.000000 | walk topk step1     0.000000 | walk topk step2   0.000000
        L3  walk topk step3  0.000000 | walk topk step4    0.000000 | walk topk step5     0.000000
        L3  walk topk step6  0.000000 | walk topk step7    0.000000
        L3  remap unique     0.000000 | remap populate     0.000000 | remap mapnode       0.000000 | remap mapedge     0.000000
        L3  cache get_index  0.000000 | cache copy_index   0.000000 | cache extract_miss  0.000000
        L3  cache copy_miss  0.000000 | cache combine_miss 0.000000 | cache combine cache 0.000000 | cache combine remote 0.000000
        L3  label extract  0.000000
    [Step(min) Profiler Level 1 E3 S1001]
        L1  sample           0.000000 | send           0.000000
        L1  recv             0.000000 | copy           0.000000 | convert time 0.000000 | train  0.000000
        L1  feature nbytes 0.00 Bytes | label nbytes 0.00 Bytes
        L1  id nbytes      0.00 Bytes | graph nbytes    3.81 MB
        L1  miss nbytes    0.00 Bytes | remote nbytes 0.00 Bytes
        L1  num nodes               0 | num samples           0
    [Step(min) Profiler Level 2 E3 S1001]
        L2  shuffle     0.000000 | core sample  0.000000 | id remap        0.000000
        L2  graph copy  0.000000 | id copy      0.000000 | cache feat copy 0.000000
        L2  last layer sample time 0.000000 | size 0.000000
    [Step(min) Profiler Level 3 E3 S1001]
        L3  khop sample coo  0.000000 | khop sort coo      0.000000 | khop count edge     0.000000 | khop compact edge 0.000000
        L3  walk sample coo  0.000000 | walk topk total    0.000000 | walk topk step1     0.000000 | walk topk step2   0.000000
        L3  walk topk step3  0.000000 | walk topk step4    0.000000 | walk topk step5     0.000000
        L3  walk topk step6  0.000000 | walk topk step7    0.000000
        L3  remap unique     0.000000 | remap populate     0.000000 | remap mapnode       0.000000 | remap mapedge     0.000000
        L3  cache get_index  0.000000 | cache copy_index   0.000000 | cache extract_miss  0.000000
        L3  cache copy_miss  0.000000 | cache combine_miss 0.000000 | cache combine cache 0.000000 | cache combine remote 0.000000
        L3  label extract  0.000000
    [Init Profiler Level 1]
        L1  init     3.0702 | sampler init     0.0000 | trainer init 128.3355
    [Init Profiler Level 2]
        L2  load ds         3.0674 | init queue          36.5016
        L2  presample       0.0000 | build interal ds     1.4679
        L2  build cache    90.3635
    [Init Profiler Level 3]
        L3  load dataset: mmap     3.0674 | copy         0.0000
        L3  dist queue: alloc      0.0007 | pin         36.5009 | push     0.0000
        L3  presample: init        0.0000
        L3  presample: sample      0.0000 | copy         0.0000
        L3  presample: count       0.0000 | sort         0.0000
        L3  presample: reset       0.0000 | get rank     0.0000
        L3  internal: cuda ctx     1.4678 | cuda stream     0.0001
|===========================================================================|
|                  PyTorch CUDA memory summary, device ID 0                 |
|---------------------------------------------------------------------------|
|            CUDA OOMs: 0            |        cudaMalloc retries: 0         |
|===========================================================================|
|        Metric         | Cur Usage  | Peak Usage | Tot Alloc  | Tot Freed  |
|---------------------------------------------------------------------------|
| Allocated memory      |   11891 KB |  252683 KB |    1091 GB |    1091 GB |
|       from large pool |    7882 KB |  249993 KB |    1081 GB |    1081 GB |
|       from small pool |    4009 KB |    5313 KB |      10 GB |      10 GB |
|---------------------------------------------------------------------------|
| Active memory         |   11891 KB |  252683 KB |    1091 GB |    1091 GB |
|       from large pool |    7882 KB |  249993 KB |    1081 GB |    1081 GB |
|       from small pool |    4009 KB |    5313 KB |      10 GB |      10 GB |
|---------------------------------------------------------------------------|
| GPU reserved memory   |  413696 KB |  413696 KB |  413696 KB |       0 B  |
|       from large pool |  407552 KB |  407552 KB |  407552 KB |       0 B  |
|       from small pool |    6144 KB |    6144 KB |    6144 KB |       0 B  |
|---------------------------------------------------------------------------|
| Non-releasable memory |   78220 KB |  296477 KB |    1004 GB |    1004 GB |
|       from large pool |   76086 KB |  294407 KB |     994 GB |     994 GB |
|       from small pool |    2134 KB |    3395 KB |      10 GB |      10 GB |
|---------------------------------------------------------------------------|
| Allocations           |      39    |      56    |  183068    |  183029    |
|       from large pool |       3    |      14    |   65464    |   65461    |
|       from small pool |      36    |      45    |  117604    |  117568    |
|---------------------------------------------------------------------------|
| Active allocs         |      40    |      56    |  183068    |  183028    |
|       from large pool |       3    |      14    |   65464    |   65461    |
|       from small pool |      37    |      45    |  117604    |  117567    |
|---------------------------------------------------------------------------|
| GPU reserved segments |      12    |      12    |      12    |       0    |
|       from large pool |       9    |       9    |       9    |       0    |
|       from small pool |       3    |       3    |       3    |       0    |
|---------------------------------------------------------------------------|
| Non-releasable allocs |      13    |      25    |   73900    |   73887    |
|       from large pool |       5    |      13    |   41329    |   41324    |
|       from small pool |       8    |      16    |   32571    |   32563    |
|---------------------------------------------------------------------------|
| Oversize allocations  |       0    |       0    |       0    |       0    |
|---------------------------------------------------------------------------|
| Oversize GPU segments |       0    |       0    |       0    |       0    |
|===========================================================================|

test_result:epoch_time:copy_time=2.2701
test_result:convert_time=0.1491
test_result:train_time=2.3769
test_result:epoch_time:train_total=2.5260
test_result:cache_percentage=0.0500
test_result:cache_hit_rate=1.0000
test_result:run_time=30.7238
